10
10
29 78 9 36 49 11 62 56 44 21
43 28 90 69 75 46 46 72 30 11
85 91 74 39 33 10 89 12 90 45
71 81 95 98 99 43 9 85 52 22
6 22 14 26 69 61 53 49 21 72
47 2 84 95 6 52 65 25 48 72
37 46 13 61 55 21 32 30 89 32
86 46 31 79 32 74 88 36 19 48
76 69 85 76 26 51 40 89 74 11
13 85 61 52 90 47 7 45 64 76
1 2 3 4 5 6 7 8 9 10
1 3 5 10 4 2 7 6 8 9
2 1 4 3 9 6 8 7 10 5
2 3 1 5 7 9 8 4 10 6
3 1 2 6 4 5 9 8 10 7
3 2 6 4 9 10 1 7 5 8
2 1 4 3 7 6 10 9 8 5
3 1 2 6 5 7 9 10 8 4
1 2 4 6 3 10 7 8 5 9
2 1 3 7 9 10 6 4 5 8
